(set-info :source |printed by MathSAT|)
(declare-fun A_0 () Int)
(declare-fun .y.11 () Int)
(declare-fun E_0 () Int)
(declare-fun .y.12 () Int)
(declare-fun C_0 () Int)
(declare-fun .y.13 () Int)
(declare-fun G () (Array Int Int))
(declare-fun .y.14 () (Array Int Int))
(declare-fun B_0 () Int)
(declare-fun .y.15 () Int)
(declare-fun F_0 () Int)
(declare-fun .y.16 () Int)
(declare-fun D_0 () Int)
(declare-fun .y.17 () Int)
(declare-fun H () (Array Int Int))
(declare-fun .y.18 () (Array Int Int))
(declare-fun .loc.10 () Bool)
(declare-fun .loc.19 () Bool)
(define-fun .def_8 () Int (! A_0 :next |.y.11|))
(define-fun .def_10 () Int (! E_0 :next |.y.12|))
(define-fun .def_12 () Int (! C_0 :next |.y.13|))
(define-fun .def_14 () (Array Int Int) (! G :next |.y.14|))
(define-fun .def_16 () Int (! B_0 :next |.y.15|))
(define-fun .def_18 () Int (! F_0 :next |.y.16|))
(define-fun .def_20 () Int (! D_0 :next |.y.17|))
(define-fun .def_22 () (Array Int Int) (! H :next |.y.18|))
(define-fun .def_24 () Bool (! .loc.10 :next |.loc.19|))
(define-fun .def_108 () Bool (= .def_18 0))
(define-fun .def_107 () Bool (= .def_10 0))
(define-fun .def_109 () Bool (and .def_107 .def_108))
(define-fun .def_93 () Bool (= .def_14 .def_22))
(define-fun .def_110 () Bool (and .def_93 .def_109))
(define-fun .def_105 () Bool (= .def_12 .def_20))
(define-fun .def_111 () Bool (and .def_105 .def_110))
(define-fun .def_104 () Bool (= .def_8 .def_16))
(define-fun .def_112 () Bool (and .def_104 .def_111))
(define-fun .def_102 () Bool (! (not .def_24) :invar-property 0))
(define-fun .def_113 () Bool (! (and .def_102 .def_112) :init true))
(define-fun .def_94 () Bool (not .def_93))
(define-fun .def_91 () Bool (= .def_10 .def_18))
(define-fun .def_92 () Bool (not .def_91))
(define-fun .def_95 () Bool (or .def_92 .def_94))
(define-fun .def_28 () Bool (<= .def_12 .def_10))
(define-fun .def_96 () Bool (and .def_28 .def_95))
(define-fun .def_26 () Bool (<= .def_20 .def_18))
(define-fun .def_97 () Bool (and .def_26 .def_96))
(define-fun .def_98 () Bool (and .loc.19 .def_97))
(define-fun .def_58 () Bool (not .def_28))
(define-fun .def_27 () Bool (not .def_26))
(define-fun .def_81 () Bool (and .def_27 .def_58))
(define-fun .def_30 () Bool (not .loc.19))
(define-fun .def_82 () Bool (and .def_30 .def_81))
(define-fun .def_32 () Bool (= .def_20 .y.17))
(define-fun .def_83 () Bool (and .def_32 .def_82))
(define-fun .def_34 () Bool (= .def_16 .y.15))
(define-fun .def_84 () Bool (and .def_34 .def_83))
(define-fun .def_36 () Bool (= .def_12 .y.13))
(define-fun .def_85 () Bool (and .def_36 .def_84))
(define-fun .def_38 () Bool (= .def_8 .y.11))
(define-fun .def_86 () Bool (and .def_38 .def_85))
(define-fun .def_40 () Int (select .def_22 .def_16))
(define-fun .def_42 () Int (* 4 .def_18))
(define-fun .def_43 () Int (+ .def_16 .def_42))
(define-fun .def_45 () Int (+ .def_43 4))
(define-fun .def_46 () (Array Int Int) (store .def_22 .def_45 .def_40))
(define-fun .def_47 () Bool (= .y.18 .def_46))
(define-fun .def_87 () Bool (and .def_47 .def_86))
(define-fun .def_65 () Int (* (- 1) .y.12))
(define-fun .def_66 () Int (+ .def_10 .def_65))
(define-fun .def_67 () Bool (= .def_66 (- 1)))
(define-fun .def_88 () Bool (and .def_67 .def_87))
(define-fun .def_69 () Int (* 4 .def_10))
(define-fun .def_70 () Int (+ .def_8 .def_69))
(define-fun .def_71 () Int (select .def_14 .def_70))
(define-fun .def_73 () Int (+ .def_70 4))
(define-fun .def_74 () (Array Int Int) (store .def_14 .def_73 .def_71))
(define-fun .def_75 () Bool (= .y.14 .def_74))
(define-fun .def_89 () Bool (and .def_75 .def_88))
(define-fun .def_50 () Int (* (- 1) .y.16))
(define-fun .def_51 () Int (+ .def_18 .def_50))
(define-fun .def_52 () Bool (= .def_51 (- 1)))
(define-fun .def_90 () Bool (and .def_52 .def_89))
(define-fun .def_99 () Bool (or .def_90 .def_98))
(define-fun .def_79 () Bool (= .def_18 .y.16))
(define-fun .def_77 () Bool (= .def_22 .y.18))
(define-fun .def_59 () Bool (and .def_26 .def_58))
(define-fun .def_60 () Bool (and .def_30 .def_59))
(define-fun .def_61 () Bool (and .def_32 .def_60))
(define-fun .def_62 () Bool (and .def_34 .def_61))
(define-fun .def_63 () Bool (and .def_36 .def_62))
(define-fun .def_64 () Bool (and .def_38 .def_63))
(define-fun .def_68 () Bool (and .def_64 .def_67))
(define-fun .def_76 () Bool (and .def_68 .def_75))
(define-fun .def_78 () Bool (and .def_76 .def_77))
(define-fun .def_80 () Bool (and .def_78 .def_79))
(define-fun .def_100 () Bool (or .def_80 .def_99))
(define-fun .def_56 () Bool (= .def_10 .y.12))
(define-fun .def_54 () Bool (= .def_14 .y.14))
(define-fun .def_29 () Bool (and .def_27 .def_28))
(define-fun .def_31 () Bool (and .def_29 .def_30))
(define-fun .def_33 () Bool (and .def_31 .def_32))
(define-fun .def_35 () Bool (and .def_33 .def_34))
(define-fun .def_37 () Bool (and .def_35 .def_36))
(define-fun .def_39 () Bool (and .def_37 .def_38))
(define-fun .def_48 () Bool (and .def_39 .def_47))
(define-fun .def_53 () Bool (and .def_48 .def_52))
(define-fun .def_55 () Bool (and .def_53 .def_54))
(define-fun .def_57 () Bool (and .def_55 .def_56))
(define-fun .def_101 () Bool (or .def_57 .def_100))
(define-fun .def_103 () Bool (! (and .def_101 .def_102) :trans true))
(assert true)
